0.21 2.24
1.21 2.1
2.42 2.99
3.66 2.83
4.59 2.06
5.89 2.21
6.95 2.01
0.24 4.72
1.35 4.72
2 4.88
3.73 4.76
4.69 4.9
5.64 4.96
6.97 4.6
0.72 6.36
1.76 6.56
2.65 6.32
3.82 6.84
4.72 6.82
5.91 6.82
6.5 6.31
0.18 8.33
1.52 8.67
2.5 8.21
3.93 8.44
4.97 8.42
5.82 8.6
6.11 8.94
0.72 10.08
1.04 10.51
2.34 10.72
3.56 10.74
4.64 10.92
5.37 10.83
6.86 10.72
0.37 12.84
1.85 12.27
2.75 12.94
3.65 12.97
4.07 12.5
5.78 12.95
6.67 12.07
0.25 14.16
1.54 14.74
2.77 14.76
3.24 14.96
4.01 14.91
5.03 14.54
6.08 14.66
0.7 16.9
